\Problem name: Modelo Montagem de Elenco

Minimize
OBJROW: -9.61000 y(0,0) -3.22000 y(0,1) -4.63000 y(0,2) -3.49000 y(0,3) -4.16000 y(0,4) -6.49000 y(0,5) -5.01000 y(0,6) -4.71000 y(0,7) -2.95000 y(0,8) -4.34000 y(0,9)
 -3.42000 y(0,10) -0.73000 y(0,11) -1.71000 y(0,12) -10.43000 y(0,13) -4.02000 y(0,14) -3.73000 y(0,15) -4.59000 y(0,16) -4.69000 y(0,17) -3.89000 y(0,18) -2.19000 y(0,19)
 -4.44000 y(0,20) -9.61000 y(1,0) -3.22000 y(1,1) -4.63000 y(1,2) -3.49000 y(1,3) -4.16000 y(1,4) -6.49000 y(1,5) -5.01000 y(1,6) -4.71000 y(1,7) -2.95000 y(1,8)
 -4.34000 y(1,9) -3.42000 y(1,10) -0.73000 y(1,11) -1.71000 y(1,12) -10.43000 y(1,13) -4.02000 y(1,14) -3.73000 y(1,15) -4.59000 y(1,16) -4.69000 y(1,17) -3.89000 y(1,18)
 -2.19000 y(1,19) -4.44000 y(1,20) -9.61000 y(2,0) -3.22000 y(2,1) -4.63000 y(2,2) -3.49000 y(2,3) -4.16000 y(2,4) -6.49000 y(2,5) -5.01000 y(2,6) -4.71000 y(2,7)
 -2.95000 y(2,8) -4.34000 y(2,9) -3.42000 y(2,10) -0.73000 y(2,11) -1.71000 y(2,12) -10.43000 y(2,13) -4.02000 y(2,14) -3.73000 y(2,15) -4.59000 y(2,16) -4.69000 y(2,17)
 -3.89000 y(2,18) -2.19000 y(2,19) -4.44000 y(2,20) -9.61000 y(3,0) -3.22000 y(3,1) -4.63000 y(3,2) -3.49000 y(3,3) -4.16000 y(3,4) -6.49000 y(3,5) -5.01000 y(3,6)
 -4.71000 y(3,7) -2.95000 y(3,8) -4.34000 y(3,9) -3.42000 y(3,10) -0.73000 y(3,11) -1.71000 y(3,12) -10.43000 y(3,13) -4.02000 y(3,14) -3.73000 y(3,15) -4.59000 y(3,16)
 -4.69000 y(3,17) -3.89000 y(3,18) -2.19000 y(3,19) -4.44000 y(3,20) -9.61000 y(4,0) -3.22000 y(4,1) -4.63000 y(4,2) -3.49000 y(4,3) -4.16000 y(4,4) -6.49000 y(4,5)
 -5.01000 y(4,6) -4.71000 y(4,7) -2.95000 y(4,8) -4.34000 y(4,9) -3.42000 y(4,10) -0.73000 y(4,11) -1.71000 y(4,12) -10.43000 y(4,13) -4.02000 y(4,14) -3.73000 y(4,15)
 -4.59000 y(4,16) -4.69000 y(4,17) -3.89000 y(4,18) -2.19000 y(4,19) -4.44000 y(4,20) -9.61000 y(5,0) -3.22000 y(5,1) -4.63000 y(5,2) -3.49000 y(5,3) -4.16000 y(5,4)
 -6.49000 y(5,5) -5.01000 y(5,6) -4.71000 y(5,7) -2.95000 y(5,8) -4.34000 y(5,9) -3.42000 y(5,10) -0.73000 y(5,11) -1.71000 y(5,12) -10.43000 y(5,13) -4.02000 y(5,14)
 -3.73000 y(5,15) -4.59000 y(5,16) -4.69000 y(5,17) -3.89000 y(5,18) -2.19000 y(5,19) -4.44000 y(5,20)
Subject To
restricao3.6_0:  y(0,0) + y(1,0) + y(2,0) + y(3,0) + y(4,0) + y(5,0) <= 1
restricao3.6_1:  y(0,1) + y(1,1) + y(2,1) + y(3,1) + y(4,1) + y(5,1) <= 1
restricao3.6_2:  y(0,2) + y(1,2) + y(2,2) + y(3,2) + y(4,2) + y(5,2) <= 1
restricao3.6_3:  y(0,3) + y(1,3) + y(2,3) + y(3,3) + y(4,3) + y(5,3) <= 1
restricao3.6_4:  y(0,4) + y(1,4) + y(2,4) + y(3,4) + y(4,4) + y(5,4) <= 1
restricao3.6_5:  y(0,5) + y(1,5) + y(2,5) + y(3,5) + y(4,5) + y(5,5) <= 1
restricao3.6_6:  y(0,6) + y(1,6) + y(2,6) + y(3,6) + y(4,6) + y(5,6) <= 1
restricao3.6_7:  y(0,7) + y(1,7) + y(2,7) + y(3,7) + y(4,7) + y(5,7) <= 1
restricao3.6_8:  y(0,8) + y(1,8) + y(2,8) + y(3,8) + y(4,8) + y(5,8) <= 1
restricao3.6_9:  y(0,9) + y(1,9) + y(2,9) + y(3,9) + y(4,9) + y(5,9) <= 1
restricao3.6_10:  y(0,10) + y(1,10) + y(2,10) + y(3,10) + y(4,10) + y(5,10) <= 1
restricao3.6_11:  y(0,11) + y(1,11) + y(2,11) + y(3,11) + y(4,11) + y(5,11) <= 1
restricao3.6_12:  y(0,12) + y(1,12) + y(2,12) + y(3,12) + y(4,12) + y(5,12) <= 1
restricao3.6_13:  y(0,13) + y(1,13) + y(2,13) + y(3,13) + y(4,13) + y(5,13) <= 1
restricao3.6_14:  y(0,14) + y(1,14) + y(2,14) + y(3,14) + y(4,14) + y(5,14) <= 1
restricao3.6_15:  y(0,15) + y(1,15) + y(2,15) + y(3,15) + y(4,15) + y(5,15) <= 1
restricao3.6_16:  y(0,16) + y(1,16) + y(2,16) + y(3,16) + y(4,16) + y(5,16) <= 1
restricao3.6_17:  y(0,17) + y(1,17) + y(2,17) + y(3,17) + y(4,17) + y(5,17) <= 1
restricao3.6_18:  y(0,18) + y(1,18) + y(2,18) + y(3,18) + y(4,18) + y(5,18) <= 1
restricao3.6_19:  y(0,19) + y(1,19) + y(2,19) + y(3,19) + y(4,19) + y(5,19) <= 1
restricao3.6_20:  y(0,20) + y(1,20) + y(2,20) + y(3,20) + y(4,20) + y(5,20) <= 1
restricao_12jogadores:  y(0,0) + y(0,1) + y(0,2) + y(0,3) + y(0,4) + y(0,5) + y(0,6) + y(0,7) + y(0,8) + y(0,9)
 + y(0,10) + y(0,11) + y(0,12) + y(0,13) + y(0,14) + y(0,15) + y(0,16) + y(0,17) + y(0,18) + y(0,19)
 + y(0,20) + y(1,0) + y(1,1) + y(1,2) + y(1,3) + y(1,4) + y(1,5) + y(1,6) + y(1,7) + y(1,8)
 + y(1,9) + y(1,10) + y(1,11) + y(1,12) + y(1,13) + y(1,14) + y(1,15) + y(1,16) + y(1,17) + y(1,18)
 + y(1,19) + y(1,20) + y(2,0) + y(2,1) + y(2,2) + y(2,3) + y(2,4) + y(2,5) + y(2,6) + y(2,7)
 + y(2,8) + y(2,9) + y(2,10) + y(2,11) + y(2,12) + y(2,13) + y(2,14) + y(2,15) + y(2,16) + y(2,17)
 + y(2,18) + y(2,19) + y(2,20) + y(3,0) + y(3,1) + y(3,2) + y(3,3) + y(3,4) + y(3,5) + y(3,6)
 + y(3,7) + y(3,8) + y(3,9) + y(3,10) + y(3,11) + y(3,12) + y(3,13) + y(3,14) + y(3,15) + y(3,16)
 + y(3,17) + y(3,18) + y(3,19) + y(3,20) + y(4,0) + y(4,1) + y(4,2) + y(4,3) + y(4,4) + y(4,5)
 + y(4,6) + y(4,7) + y(4,8) + y(4,9) + y(4,10) + y(4,11) + y(4,12) + y(4,13) + y(4,14) + y(4,15)
 + y(4,16) + y(4,17) + y(4,18) + y(4,19) + y(4,20) + y(5,0) + y(5,1) + y(5,2) + y(5,3) + y(5,4)
 + y(5,5) + y(5,6) + y(5,7) + y(5,8) + y(5,9) + y(5,10) + y(5,11) + y(5,12) + y(5,13) + y(5,14)
 + y(5,15) + y(5,16) + y(5,17) + y(5,18) + y(5,19) + y(5,20) = 12
restricao3.5_0:  y(0,0) + y(0,1) = 2
restricao3.5_1:  y(1,2) + y(1,3) + y(1,4) + y(1,5) = 1
restricao3.5_2:  y(2,6) + y(2,7) + y(2,8) + y(2,9) = 2
restricao3.5_3:  y(3,10) + y(3,11) + y(3,12) + y(3,13) + y(3,14) = 4
restricao3.5_4:  y(4,15) + y(4,16) + y(4,17) + y(4,18) = 1
restricao3.5_5:  y(5,19) + y(5,20) = 2
restricao3.3_5:  19.57000 y(0,0) + 10.68000 y(0,1) + 7.19000 y(0,2) + 6.42000 y(0,3) + 11.94000 y(0,4) + 15.68000 y(0,5) + 12.68000 y(0,6) + 13.32000 y(0,7) + 6.20000 y(0,8) + 8.90000 y(0,9)
 + 11.37000 y(0,10) + 3.17000 y(0,11) + 7.17000 y(0,12) + 17 y(0,13) + 7.94000 y(0,14) + 10.17000 y(0,15) + 12.94000 y(0,16) + 14.06000 y(0,17) + 11.45000 y(0,18) + 6.43000 y(0,19)
 + 8.55000 y(0,20) + 19.57000 y(1,0) + 10.68000 y(1,1) + 7.19000 y(1,2) + 6.42000 y(1,3) + 11.94000 y(1,4) + 15.68000 y(1,5) + 12.68000 y(1,6) + 13.32000 y(1,7) + 6.20000 y(1,8)
 + 8.90000 y(1,9) + 11.37000 y(1,10) + 3.17000 y(1,11) + 7.17000 y(1,12) + 17 y(1,13) + 7.94000 y(1,14) + 10.17000 y(1,15) + 12.94000 y(1,16) + 14.06000 y(1,17) + 11.45000 y(1,18)
 + 6.43000 y(1,19) + 8.55000 y(1,20) + 19.57000 y(2,0) + 10.68000 y(2,1) + 7.19000 y(2,2) + 6.42000 y(2,3) + 11.94000 y(2,4) + 15.68000 y(2,5) + 12.68000 y(2,6) + 13.32000 y(2,7)
 + 6.20000 y(2,8) + 8.90000 y(2,9) + 11.37000 y(2,10) + 3.17000 y(2,11) + 7.17000 y(2,12) + 17 y(2,13) + 7.94000 y(2,14) + 10.17000 y(2,15) + 12.94000 y(2,16) + 14.06000 y(2,17)
 + 11.45000 y(2,18) + 6.43000 y(2,19) + 8.55000 y(2,20) + 19.57000 y(3,0) + 10.68000 y(3,1) + 7.19000 y(3,2) + 6.42000 y(3,3) + 11.94000 y(3,4) + 15.68000 y(3,5) + 12.68000 y(3,6)
 + 13.32000 y(3,7) + 6.20000 y(3,8) + 8.90000 y(3,9) + 11.37000 y(3,10) + 3.17000 y(3,11) + 7.17000 y(3,12) + 17 y(3,13) + 7.94000 y(3,14) + 10.17000 y(3,15) + 12.94000 y(3,16)
 + 14.06000 y(3,17) + 11.45000 y(3,18) + 6.43000 y(3,19) + 8.55000 y(3,20) + 19.57000 y(4,0) + 10.68000 y(4,1) + 7.19000 y(4,2) + 6.42000 y(4,3) + 11.94000 y(4,4) + 15.68000 y(4,5)
 + 12.68000 y(4,6) + 13.32000 y(4,7) + 6.20000 y(4,8) + 8.90000 y(4,9) + 11.37000 y(4,10) + 3.17000 y(4,11) + 7.17000 y(4,12) + 17 y(4,13) + 7.94000 y(4,14) + 10.17000 y(4,15)
 + 12.94000 y(4,16) + 14.06000 y(4,17) + 11.45000 y(4,18) + 6.43000 y(4,19) + 8.55000 y(4,20) + 19.57000 y(5,0) + 10.68000 y(5,1) + 7.19000 y(5,2) + 6.42000 y(5,3) + 11.94000 y(5,4)
 + 15.68000 y(5,5) + 12.68000 y(5,6) + 13.32000 y(5,7) + 6.20000 y(5,8) + 8.90000 y(5,9) + 11.37000 y(5,10) + 3.17000 y(5,11) + 7.17000 y(5,12) + 17 y(5,13) + 7.94000 y(5,14)
 + 10.17000 y(5,15) + 12.94000 y(5,16) + 14.06000 y(5,17) + 11.45000 y(5,18) + 6.43000 y(5,19) + 8.55000 y(5,20) <= 200
Bounds
 0 <= y(0,0) <= 1
 0 <= y(0,1) <= 1
 0 <= y(0,2) <= 1
 0 <= y(0,3) <= 1
 0 <= y(0,4) <= 1
 0 <= y(0,5) <= 1
 0 <= y(0,6) <= 1
 0 <= y(0,7) <= 1
 0 <= y(0,8) <= 1
 0 <= y(0,9) <= 1
 0 <= y(0,10) <= 1
 0 <= y(0,11) <= 1
 0 <= y(0,12) <= 1
 0 <= y(0,13) <= 1
 0 <= y(0,14) <= 1
 0 <= y(0,15) <= 1
 0 <= y(0,16) <= 1
 0 <= y(0,17) <= 1
 0 <= y(0,18) <= 1
 0 <= y(0,19) <= 1
 0 <= y(0,20) <= 1
 0 <= y(1,0) <= 1
 0 <= y(1,1) <= 1
 0 <= y(1,2) <= 1
 0 <= y(1,3) <= 1
 0 <= y(1,4) <= 1
 0 <= y(1,5) <= 1
 0 <= y(1,6) <= 1
 0 <= y(1,7) <= 1
 0 <= y(1,8) <= 1
 0 <= y(1,9) <= 1
 0 <= y(1,10) <= 1
 0 <= y(1,11) <= 1
 0 <= y(1,12) <= 1
 0 <= y(1,13) <= 1
 0 <= y(1,14) <= 1
 0 <= y(1,15) <= 1
 0 <= y(1,16) <= 1
 0 <= y(1,17) <= 1
 0 <= y(1,18) <= 1
 0 <= y(1,19) <= 1
 0 <= y(1,20) <= 1
 0 <= y(2,0) <= 1
 0 <= y(2,1) <= 1
 0 <= y(2,2) <= 1
 0 <= y(2,3) <= 1
 0 <= y(2,4) <= 1
 0 <= y(2,5) <= 1
 0 <= y(2,6) <= 1
 0 <= y(2,7) <= 1
 0 <= y(2,8) <= 1
 0 <= y(2,9) <= 1
 0 <= y(2,10) <= 1
 0 <= y(2,11) <= 1
 0 <= y(2,12) <= 1
 0 <= y(2,13) <= 1
 0 <= y(2,14) <= 1
 0 <= y(2,15) <= 1
 0 <= y(2,16) <= 1
 0 <= y(2,17) <= 1
 0 <= y(2,18) <= 1
 0 <= y(2,19) <= 1
 0 <= y(2,20) <= 1
 0 <= y(3,0) <= 1
 0 <= y(3,1) <= 1
 0 <= y(3,2) <= 1
 0 <= y(3,3) <= 1
 0 <= y(3,4) <= 1
 0 <= y(3,5) <= 1
 0 <= y(3,6) <= 1
 0 <= y(3,7) <= 1
 0 <= y(3,8) <= 1
 0 <= y(3,9) <= 1
 0 <= y(3,10) <= 1
 0 <= y(3,11) <= 1
 0 <= y(3,12) <= 1
 0 <= y(3,13) <= 1
 0 <= y(3,14) <= 1
 0 <= y(3,15) <= 1
 0 <= y(3,16) <= 1
 0 <= y(3,17) <= 1
 0 <= y(3,18) <= 1
 0 <= y(3,19) <= 1
 0 <= y(3,20) <= 1
 0 <= y(4,0) <= 1
 0 <= y(4,1) <= 1
 0 <= y(4,2) <= 1
 0 <= y(4,3) <= 1
 0 <= y(4,4) <= 1
 0 <= y(4,5) <= 1
 0 <= y(4,6) <= 1
 0 <= y(4,7) <= 1
 0 <= y(4,8) <= 1
 0 <= y(4,9) <= 1
 0 <= y(4,10) <= 1
 0 <= y(4,11) <= 1
 0 <= y(4,12) <= 1
 0 <= y(4,13) <= 1
 0 <= y(4,14) <= 1
 0 <= y(4,15) <= 1
 0 <= y(4,16) <= 1
 0 <= y(4,17) <= 1
 0 <= y(4,18) <= 1
 0 <= y(4,19) <= 1
 0 <= y(4,20) <= 1
 0 <= y(5,0) <= 1
 0 <= y(5,1) <= 1
 0 <= y(5,2) <= 1
 0 <= y(5,3) <= 1
 0 <= y(5,4) <= 1
 0 <= y(5,5) <= 1
 0 <= y(5,6) <= 1
 0 <= y(5,7) <= 1
 0 <= y(5,8) <= 1
 0 <= y(5,9) <= 1
 0 <= y(5,10) <= 1
 0 <= y(5,11) <= 1
 0 <= y(5,12) <= 1
 0 <= y(5,13) <= 1
 0 <= y(5,14) <= 1
 0 <= y(5,15) <= 1
 0 <= y(5,16) <= 1
 0 <= y(5,17) <= 1
 0 <= y(5,18) <= 1
 0 <= y(5,19) <= 1
 0 <= y(5,20) <= 1
Integers
y(0,0) y(0,1) y(0,2) y(0,3) y(0,4) y(0,5) y(0,6) y(0,7) y(0,8) y(0,9) 
y(0,10) y(0,11) y(0,12) y(0,13) y(0,14) y(0,15) y(0,16) y(0,17) y(0,18) y(0,19) 
y(0,20) y(1,0) y(1,1) y(1,2) y(1,3) y(1,4) y(1,5) y(1,6) y(1,7) y(1,8) 
y(1,9) y(1,10) y(1,11) y(1,12) y(1,13) y(1,14) y(1,15) y(1,16) y(1,17) y(1,18) 
y(1,19) y(1,20) y(2,0) y(2,1) y(2,2) y(2,3) y(2,4) y(2,5) y(2,6) y(2,7) 
y(2,8) y(2,9) y(2,10) y(2,11) y(2,12) y(2,13) y(2,14) y(2,15) y(2,16) y(2,17) 
y(2,18) y(2,19) y(2,20) y(3,0) y(3,1) y(3,2) y(3,3) y(3,4) y(3,5) y(3,6) 
y(3,7) y(3,8) y(3,9) y(3,10) y(3,11) y(3,12) y(3,13) y(3,14) y(3,15) y(3,16) 
y(3,17) y(3,18) y(3,19) y(3,20) y(4,0) y(4,1) y(4,2) y(4,3) y(4,4) y(4,5) 
y(4,6) y(4,7) y(4,8) y(4,9) y(4,10) y(4,11) y(4,12) y(4,13) y(4,14) y(4,15) 
y(4,16) y(4,17) y(4,18) y(4,19) y(4,20) y(5,0) y(5,1) y(5,2) y(5,3) y(5,4) 
y(5,5) y(5,6) y(5,7) y(5,8) y(5,9) y(5,10) y(5,11) y(5,12) y(5,13) y(5,14) 
y(5,15) y(5,16) y(5,17) y(5,18) y(5,19) y(5,20) 
End
